lab5/part1/countones/countones/model/design_smt2.smt2
; SMT-LIBv2 description generated by Yosys 0.25+1 (git sha1 d3216593d, clang 10.0.0-4ubuntu1 -fPIC -Os)
; yosys-smt2-module countones
(declare-sort |countones_s| 0)
(declare-fun |countones_is| (|countones_s|) Bool)
(declare-fun |countones#0| (|countones_s|) (_ BitVec 1)) ; \binary_i [0]
(declare-fun |countones#1| (|countones_s|) (_ BitVec 1)) ; \binary_i [1]
(define-fun |countones#2| ((state |countones_s|)) (_ BitVec 3) (bvadd (concat #b00 (|countones#0| state)) (concat #b00 (|countones#1| state)))) ; $add$countones.sv:17$7_Y
(declare-fun |countones#3| (|countones_s|) (_ BitVec 1)) ; \binary_i [2]
(define-fun |countones#4| ((state |countones_s|)) (_ BitVec 4) (bvadd (concat #b0 (|countones#2| state)) (concat #b000 (|countones#3| state)))) ; $add$countones.sv:17$8_Y
(declare-fun |countones#5| (|countones_s|) (_ BitVec 1)) ; \binary_i [3]
(define-fun |countones#6| ((state |countones_s|)) (_ BitVec 4) (bvadd (|countones#4| state) (concat #b000 (|countones#5| state)))) ; $add$countones.sv:17$9_Y
(declare-fun |countones#7| (|countones_s|) (_ BitVec 1)) ; \binary_i [4]
(define-fun |countones#8| ((state |countones_s|)) (_ BitVec 4) (bvadd (|countones#6| state) (concat #b000 (|countones#7| state)))) ; $add$countones.sv:17$10_Y
(declare-fun |countones#9| (|countones_s|) (_ BitVec 1)) ; \binary_i [5]
(define-fun |countones#10| ((state |countones_s|)) (_ BitVec 4) (bvadd (|countones#8| state) (concat #b000 (|countones#9| state)))) ; $add$countones.sv:17$11_Y
(declare-fun |countones#11| (|countones_s|) (_ BitVec 1)) ; \binary_i [6]
(define-fun |countones#12| ((state |countones_s|)) (_ BitVec 4) (bvadd (|countones#10| state) (concat #b000 (|countones#11| state)))) ; $add$countones.sv:17$12_Y
(declare-fun |countones#13| (|countones_s|) (_ BitVec 1)) ; \binary_i [7]
(define-fun |countones#14| ((state |countones_s|)) (_ BitVec 4) (bvadd (|countones#12| state) (concat #b000 (|countones#13| state)))) ; \count_o
; yosys-smt2-output count_o 4
; yosys-smt2-wire count_o 4
(define-fun |countones_n count_o| ((state |countones_s|)) (_ BitVec 4) (|countones#14| state))
; yosys-smt2-wire count_l 4
(define-fun |countones_n count_l| ((state |countones_s|)) (_ BitVec 4) (|countones#14| state))
; yosys-smt2-input binary_i 8
; yosys-smt2-wire binary_i 8
; yosys-smt2-witness {"offset": 0, "path": ["\\binary_i"], "smtname": "binary_i", "smtoffset": 0, "type": "input", "width": 8}
(define-fun |countones_n binary_i| ((state |countones_s|)) (_ BitVec 8) (concat (|countones#13| state) (concat (|countones#11| state) (concat (|countones#9| state) (concat (|countones#7| state) (concat (|countones#5| state) (concat (|countones#3| state) (concat (|countones#1| state) (|countones#0| state)))))))))
(define-fun |countones#15| ((state |countones_s|)) Bool (= (|countones#13| state) #b1)) ; $add$countones.sv:0$20_Y [0]
(define-fun |countones#16| ((state |countones_s|)) Bool (= (|countones#11| state) #b1)) ; $eqx$countones.sv:0$23_Y [0]
(define-fun |countones#17| ((state |countones_s|)) (_ BitVec 3) (bvadd (concat #b00 (ite (|countones#15| state) #b1 #b0)) (concat #b00 (ite (|countones#16| state) #b1 #b0)))) ; $add$countones.sv:0$24_Y
(define-fun |countones#18| ((state |countones_s|)) Bool (= (|countones#9| state) #b1)) ; $eqx$countones.sv:0$27_Y [0]
(define-fun |countones#19| ((state |countones_s|)) (_ BitVec 4) (bvadd (concat #b0 (|countones#17| state)) (concat #b000 (ite (|countones#18| state) #b1 #b0)))) ; $add$countones.sv:0$28_Y
(define-fun |countones#20| ((state |countones_s|)) Bool (= (|countones#7| state) #b1)) ; $eqx$countones.sv:0$31_Y [0]
(define-fun |countones#21| ((state |countones_s|)) (_ BitVec 5) (bvadd (concat #b0 (|countones#19| state)) (concat #b0000 (ite (|countones#20| state) #b1 #b0)))) ; $add$countones.sv:0$32_Y
(define-fun |countones#22| ((state |countones_s|)) Bool (= (|countones#5| state) #b1)) ; $eqx$countones.sv:0$35_Y [0]
(define-fun |countones#23| ((state |countones_s|)) (_ BitVec 6) (bvadd (concat #b0 (|countones#21| state)) (concat #b00000 (ite (|countones#22| state) #b1 #b0)))) ; $add$countones.sv:0$36_Y
(define-fun |countones#24| ((state |countones_s|)) Bool (= (|countones#3| state) #b1)) ; $eqx$countones.sv:0$39_Y [0]
(define-fun |countones#25| ((state |countones_s|)) (_ BitVec 7) (bvadd (concat #b0 (|countones#23| state)) (concat #b000000 (ite (|countones#24| state) #b1 #b0)))) ; $add$countones.sv:0$40_Y
(define-fun |countones#26| ((state |countones_s|)) Bool (= (|countones#1| state) #b1)) ; $auto$wreduce.cc:455:run$62 [0]
(define-fun |countones#27| ((state |countones_s|)) (_ BitVec 8) (bvadd (concat #b0 (|countones#25| state)) (concat #b0000000 (ite (|countones#26| state) #b1 #b0)))) ; $add$countones.sv:0$44_Y
(define-fun |countones#28| ((state |countones_s|)) Bool (= (|countones#0| state) #b1)) ; $auto$wreduce.cc:455:run$63 [0]
(define-fun |countones#29| ((state |countones_s|)) (_ BitVec 9) (bvadd (concat #b0 (|countones#27| state)) (concat #b00000000 (ite (|countones#28| state) #b1 #b0)))) ; $add$countones.sv:24$48_Y
(define-fun |countones#30| ((state |countones_s|)) Bool (= (concat #b00000 (|countones#14| state)) (|countones#29| state))) ; $0$formal$countones.sv:23$3_CHECK[0:0]$15
; yosys-smt2-assert 0 $assert$countones.sv:23$50 countones.sv:23.20-24.48
(define-fun |countones_a 0| ((state |countones_s|)) Bool (or (|countones#30| state) (not true))) ; $assert$countones.sv:23$50
(define-fun |countones_a| ((state |countones_s|)) Bool 
  (|countones_a 0| state)
)
(define-fun |countones_u| ((state |countones_s|)) Bool true)
(define-fun |countones_i| ((state |countones_s|)) Bool true)
(define-fun |countones_h| ((state |countones_s|)) Bool true)
(define-fun |countones_t| ((state |countones_s|) (next_state |countones_s|)) Bool true) ; end of module countones
; yosys-smt2-topmod countones
; end of yosys output
